NAME          
ROWS
 N  OBJ
 L  c3
 L  c4
 L  c5
 L  c6
 L  c7
 G  c1
 G  c2
COLUMNS
    ss[1]     c1        1
    ss[1]     OBJ       1000
    ss[2]     c2        1
    ss[2]     OBJ       1000
    s[1]      c3        1
    s[1]      OBJ       -1000
    s[2]      c4        1
    s[2]      OBJ       -1000
    s[3]      c5        1
    s[3]      OBJ       -1000
    s[4]      c6        1
    s[4]      OBJ       -1000
    s[5]      c7        1
    s[5]      OBJ       -1000
    MARKER    'MARKER'                 'INTORG'
    x[1]      c3        666
    x[1]      c4        716
    x[1]      c5        923
    x[1]      c6        742
    x[1]      c7        827
    x[1]      c1        556
    x[1]      c2        413
    x[1]      OBJ       -327
    x[2]      c3        688
    x[2]      c4        97
    x[2]      c5        385
    x[2]      c6        496
    x[2]      c7        439
    x[2]      c1        125
    x[2]      c2        794
    x[2]      OBJ       -407
    x[3]      c3        983
    x[3]      c4        257
    x[3]      c5        266
    x[3]      c6        589
    x[3]      c7        328
    x[3]      c1        736
    x[3]      c2        494
    x[3]      OBJ       -349
    x[4]      c3        479
    x[4]      c4        968
    x[4]      c5        374
    x[4]      c6        804
    x[4]      c7        494
    x[4]      c1        557
    x[4]      c2        821
    x[4]      OBJ       -73
    x[5]      c3        117
    x[5]      c4        460
    x[5]      c5        886
    x[5]      c6        302
    x[5]      c7        745
    x[5]      c1        301
    x[5]      c2        348
    x[5]      OBJ       -186
    x[6]      c3        68
    x[6]      c4        815
    x[6]      c5        895
    x[6]      c6        958
    x[6]      c7        386
    x[6]      c1        6
    x[6]      c2        961
    x[6]      OBJ       -164
    x[7]      c3        357
    x[7]      c4        704
    x[7]      c5        107
    x[7]      c6        873
    x[7]      c7        124
    x[7]      c1        111
    x[7]      c2        63
    x[7]      OBJ       -348
    x[8]      c3        972
    x[8]      c4        32
    x[8]      c5        647
    x[8]      c6        201
    x[8]      c7        996
    x[8]      c1        16
    x[8]      c2        962
    x[8]      OBJ       -472
    x[9]      c3        505
    x[9]      c4        961
    x[9]      c5        138
    x[9]      c6        818
    x[9]      c7        847
    x[9]      c1        704
    x[9]      c2        799
    x[9]      OBJ       -171
    x[10]     c3        865
    x[10]     c4        767
    x[10]     c5        39
    x[10]     c6        391
    x[10]     c7        440
    x[10]     c1        952
    x[10]     c2        242
    x[10]     OBJ       -175
    x[11]     c3        36
    x[11]     c4        253
    x[11]     c5        461
    x[11]     c6        491
    x[11]     c7        943
    x[11]     c1        408
    x[11]     c2        352
    x[11]     OBJ       -338
    x[12]     c3        603
    x[12]     c4        693
    x[12]     c5        866
    x[12]     c6        166
    x[12]     c7        999
    x[12]     c1        492
    x[12]     c2        337
    x[12]     OBJ       -657
    x[13]     c3        982
    x[13]     c4        737
    x[13]     c5        524
    x[13]     c6        133
    x[13]     c7        181
    x[13]     c1        163
    x[13]     c2        111
    x[13]     OBJ       -721
    x[14]     c3        727
    x[14]     c4        316
    x[14]     c5        500
    x[14]     c6        125
    x[14]     c7        500
    x[14]     c1        938
    x[14]     c2        559
    x[14]     OBJ       109
    x[15]     c3        396
    x[15]     c4        780
    x[15]     c5        589
    x[15]     c6        858
    x[15]     c7        574
    x[15]     c1        315
    x[15]     c2        889
    x[15]     OBJ       -444
    x[16]     c3        23
    x[16]     c4        233
    x[16]     c5        586
    x[16]     c6        858
    x[16]     c7        355
    x[16]     c1        949
    x[16]     c2        595
    x[16]     OBJ       49
    x[17]     c3        201
    x[17]     c4        190
    x[17]     c5        410
    x[17]     c6        516
    x[17]     c7        934
    x[17]     c1        670
    x[17]     c2        914
    x[17]     OBJ       225
    x[18]     c3        67
    x[18]     c4        414
    x[18]     c5        595
    x[18]     c6        468
    x[18]     c7        472
    x[18]     c1        1000
    x[18]     c2        576
    x[18]     OBJ       3
    x[19]     c3        423
    x[19]     c4        393
    x[19]     c5        687
    x[19]     c6        113
    x[19]     c7        76
    x[19]     c1        457
    x[19]     c2        312
    x[19]     OBJ       -292
    x[20]     c3        272
    x[20]     c4        143
    x[20]     c5        98
    x[20]     c6        688
    x[20]     c7        693
    x[20]     c1        816
    x[20]     c2        323
    x[20]     OBJ       18
    x[21]     c3        234
    x[21]     c4        536
    x[21]     c5        585
    x[21]     c6        40
    x[21]     c7        122
    x[21]     c1        357
    x[21]     c2        153
    x[21]     OBJ       -505
    x[22]     c3        567
    x[22]     c4        274
    x[22]     c5        241
    x[22]     c6        303
    x[22]     c7        447
    x[22]     c1        495
    x[22]     c2        888
    x[22]     OBJ       -113
    x[23]     c3        168
    x[23]     c4        69
    x[23]     c5        308
    x[23]     c6        568
    x[23]     c7        881
    x[23]     c1        916
    x[23]     c2        287
    x[23]     OBJ       -88
    x[24]     c3        798
    x[24]     c4        87
    x[24]     c5        436
    x[24]     c6        489
    x[24]     c7        847
    x[24]     c1        852
    x[24]     c2        627
    x[24]     OBJ       -243
    x[25]     c3        693
    x[25]     c4        693
    x[25]     c5        368
    x[25]     c6        727
    x[25]     c7        971
    x[25]     c1        614
    x[25]     c2        888
    x[25]     OBJ       -178
    x[26]     c3        2
    x[26]     c4        449
    x[26]     c5        773
    x[26]     c6        149
    x[26]     c7        500
    x[26]     c1        161
    x[26]     c2        634
    x[26]     OBJ       -185
    x[27]     c3        317
    x[27]     c4        840
    x[27]     c5        523
    x[27]     c6        709
    x[27]     c7        644
    x[27]     c1        60
    x[27]     c2        424
    x[27]     OBJ       -434
    x[28]     c3        576
    x[28]     c4        480
    x[28]     c5        223
    x[28]     c6        510
    x[28]     c7        116
    x[28]     c1        382
    x[28]     c2        365
    x[28]     OBJ       -115
    x[29]     c3        393
    x[29]     c4        662
    x[29]     c5        978
    x[29]     c6        747
    x[29]     c7        679
    x[29]     c1        373
    x[29]     c2        374
    x[29]     OBJ       -337
    x[30]     c3        990
    x[30]     c4        906
    x[30]     c5        141
    x[30]     c6        208
    x[30]     c7        315
    x[30]     c1        570
    x[30]     c2        85
    x[30]     OBJ       -409
    x[31]     c3        284
    x[31]     c4        877
    x[31]     c5        47
    x[31]     c6        605
    x[31]     c7        648
    x[31]     c1        182
    x[31]     c2        650
    x[31]     OBJ       -538
    x[32]     c3        235
    x[32]     c4        320
    x[32]     c5        386
    x[32]     c6        55
    x[32]     c7        378
    x[32]     c1        934
    x[32]     c2        265
    x[32]     OBJ       14
    x[33]     c3        602
    x[33]     c4        890
    x[33]     c5        766
    x[33]     c6        549
    x[33]     c7        450
    x[33]     c1        129
    x[33]     c2        711
    x[33]     OBJ       -288
    x[34]     c3        374
    x[34]     c4        791
    x[34]     c5        729
    x[34]     c6        411
    x[34]     c7        187
    x[34]     c1        542
    x[34]     c2        204
    x[34]     OBJ       -383
    x[35]     c3        471
    x[35]     c4        464
    x[35]     c5        748
    x[35]     c6        131
    x[35]     c7        368
    x[35]     c1        767
    x[35]     c2        816
    x[35]     OBJ       283
    x[36]     c3        196
    x[36]     c4        316
    x[36]     c5        628
    x[36]     c6        83
    x[36]     c7        427
    x[36]     c1        964
    x[36]     c2        595
    x[36]     OBJ       95
    x[37]     c3        30
    x[37]     c4        78
    x[37]     c5        47
    x[37]     c6        785
    x[37]     c7        225
    x[37]     c1        896
    x[37]     c2        111
    x[37]     OBJ       234
    x[38]     c3        268
    x[38]     c4        800
    x[38]     c5        826
    x[38]     c6        273
    x[38]     c7        57
    x[38]     c1        350
    x[38]     c2        707
    x[38]     OBJ       -278
    x[39]     c3        47
    x[39]     c4        576
    x[39]     c5        234
    x[39]     c6        396
    x[39]     c7        458
    x[39]     c1        178
    x[39]     c2        774
    x[39]     OBJ       -328
    x[40]     c3        516
    x[40]     c4        728
    x[40]     c5        430
    x[40]     c6        445
    x[40]     c7        274
    x[40]     c1        557
    x[40]     c2        138
    x[40]     OBJ       -532
    x[41]     c3        362
    x[41]     c4        475
    x[41]     c5        123
    x[41]     c6        417
    x[41]     c7        182
    x[41]     c1        975
    x[41]     c2        687
    x[41]     OBJ       42
    x[42]     c3        963
    x[42]     c4        546
    x[42]     c5        265
    x[42]     c6        365
    x[42]     c7        395
    x[42]     c1        70
    x[42]     c2        131
    x[42]     OBJ       -803
    x[43]     c3        570
    x[43]     c4        845
    x[43]     c5        909
    x[43]     c6        873
    x[43]     c7        396
    x[43]     c1        226
    x[43]     c2        279
    x[43]     OBJ       -503
    x[44]     c3        174
    x[44]     c4        406
    x[44]     c5        143
    x[44]     c6        155
    x[44]     c7        613
    x[44]     c1        356
    x[44]     c2        775
    x[44]     OBJ       199
    x[45]     c3        226
    x[45]     c4        86
    x[45]     c5        395
    x[45]     c6        879
    x[45]     c7        47
    x[45]     c1        404
    x[45]     c2        191
    x[45]     OBJ       -177
    x[46]     c3        281
    x[46]     c4        580
    x[46]     c5        863
    x[46]     c6        741
    x[46]     c7        337
    x[46]     c1        79
    x[46]     c2        217
    x[46]     OBJ       -562
    x[47]     c3        213
    x[47]     c4        856
    x[47]     c5        154
    x[47]     c6        426
    x[47]     c7        586
    x[47]     c1        833
    x[47]     c2        181
    x[47]     OBJ       -256
    x[48]     c3        297
    x[48]     c4        927
    x[48]     c5        262
    x[48]     c6        742
    x[48]     c7        694
    x[48]     c1        616
    x[48]     c2        750
    x[48]     OBJ       15
    x[49]     c3        699
    x[49]     c4        325
    x[49]     c5        335
    x[49]     c6        755
    x[49]     c7        813
    x[49]     c1        575
    x[49]     c2        890
    x[49]     OBJ       -116
    x[50]     c3        51
    x[50]     c4        655
    x[50]     c5        696
    x[50]     c6        118
    x[50]     c7        340
    x[50]     c1        987
    x[50]     c2        776
    x[50]     OBJ       65
    x[51]     c3        327
    x[51]     c4        85
    x[51]     c5        313
    x[51]     c6        26
    x[51]     c7        51
    x[51]     c1        340
    x[51]     c2        484
    x[51]     OBJ       -66
    x[52]     c3        590
    x[52]     c4        690
    x[52]     c5        557
    x[52]     c6        24
    x[52]     c7        41
    x[52]     c1        794
    x[52]     c2        655
    x[52]     OBJ       132
    x[53]     c3        929
    x[53]     c4        95
    x[53]     c5        150
    x[53]     c6        88
    x[53]     c7        981
    x[53]     c1        321
    x[53]     c2        662
    x[53]     OBJ       -60
    x[54]     c3        342
    x[54]     c4        4
    x[54]     c5        558
    x[54]     c6        534
    x[54]     c7        699
    x[54]     c1        337
    x[54]     c2        662
    x[54]     OBJ       -225
    x[55]     c3        883
    x[55]     c4        193
    x[55]     c5        898
    x[55]     c6        62
    x[55]     c7        862
    x[55]     c1        580
    x[55]     c2        995
    x[55]     OBJ       152
    x[56]     c3        145
    x[56]     c4        552
    x[56]     c5        82
    x[56]     c6        17
    x[56]     c7        574
    x[56]     c1        920
    x[56]     c2        248
    x[56]     OBJ       84
    x[57]     c3        31
    x[57]     c4        840
    x[57]     c5        984
    x[57]     c6        455
    x[57]     c7        873
    x[57]     c1        425
    x[57]     c2        718
    x[57]     OBJ       -454
    x[58]     c3        753
    x[58]     c4        458
    x[58]     c5        246
    x[58]     c6        923
    x[58]     c7        738
    x[58]     c1        170
    x[58]     c2        321
    x[58]     OBJ       -600
    x[59]     c3        947
    x[59]     c4        995
    x[59]     c5        98
    x[59]     c6        293
    x[59]     c7        487
    x[59]     c1        955
    x[59]     c2        533
    x[59]     OBJ       112
    x[60]     c3        71
    x[60]     c4        491
    x[60]     c5        860
    x[60]     c6        640
    x[60]     c7        12
    x[60]     c1        581
    x[60]     c2        391
    x[60]     OBJ       -83
    x[61]     c3        449
    x[61]     c4        7
    x[61]     c5        597
    x[61]     c6        856
    x[61]     c7        556
    x[61]     c1        739
    x[61]     c2        81
    x[61]     OBJ       -570
    x[62]     c3        579
    x[62]     c4        518
    x[62]     c5        101
    x[62]     c6        919
    x[62]     c7        689
    x[62]     c1        622
    x[62]     c2        253
    x[62]     OBJ       -264
    x[63]     c3        772
    x[63]     c4        284
    x[63]     c5        762
    x[63]     c6        751
    x[63]     c7        282
    x[63]     c1        473
    x[63]     c2        879
    x[63]     OBJ       -323
    x[64]     c3        876
    x[64]     c4        121
    x[64]     c5        607
    x[64]     c6        178
    x[64]     c7        1
    x[64]     c1        789
    x[64]     c2        540
    x[64]     OBJ       -60
    x[65]     c3        755
    x[65]     c4        728
    x[65]     c5        530
    x[65]     c6        332
    x[65]     c7        31
    x[65]     c1        946
    x[65]     c2        959
    x[65]     OBJ       182
    x[66]     c3        342
    x[66]     c4        306
    x[66]     c5        657
    x[66]     c6        784
    x[66]     c7        5
    x[66]     c1        499
    x[66]     c2        118
    x[66]     OBJ       -495
    x[67]     c3        30
    x[67]     c4        646
    x[67]     c5        340
    x[67]     c6        749
    x[67]     c7        787
    x[67]     c1        666
    x[67]     c2        989
    x[67]     OBJ       1
    x[68]     c3        809
    x[68]     c4        365
    x[68]     c5        104
    x[68]     c6        51
    x[68]     c7        348
    x[68]     c1        546
    x[68]     c2        781
    x[68]     OBJ       48
    x[69]     c3        24
    x[69]     c4        632
    x[69]     c5        943
    x[69]     c6        875
    x[69]     c7        286
    x[69]     c1        630
    x[69]     c2        678
    x[69]     OBJ       44
    x[70]     c3        336
    x[70]     c4        937
    x[70]     c5        783
    x[70]     c6        417
    x[70]     c7        361
    x[70]     c1        997
    x[70]     c2        787
    x[70]     OBJ       67
    x[71]     c3        217
    x[71]     c4        558
    x[71]     c5        621
    x[71]     c6        196
    x[71]     c7        123
    x[71]     c1        462
    x[71]     c2        424
    x[71]     OBJ       -396
    x[72]     c3        568
    x[72]     c4        48
    x[72]     c5        688
    x[72]     c6        727
    x[72]     c7        39
    x[72]     c1        750
    x[72]     c2        721
    x[72]     OBJ       288
    x[73]     c3        299
    x[73]     c4        229
    x[73]     c5        721
    x[73]     c6        950
    x[73]     c7        490
    x[73]     c1        841
    x[73]     c2        623
    x[73]     OBJ       22
    x[74]     c3        157
    x[74]     c4        303
    x[74]     c5        384
    x[74]     c6        483
    x[74]     c7        138
    x[74]     c1        795
    x[74]     c2        833
    x[74]     OBJ       127
    x[75]     c3        846
    x[75]     c4        666
    x[75]     c5        233
    x[75]     c6        809
    x[75]     c7        892
    x[75]     c1        2
    x[75]     c2        986
    x[75]     OBJ       -603
    x[76]     c3        183
    x[76]     c4        873
    x[76]     c5        689
    x[76]     c6        232
    x[76]     c7        829
    x[76]     c1        522
    x[76]     c2        141
    x[76]     OBJ       -474
    x[77]     c3        654
    x[77]     c4        881
    x[77]     c5        296
    x[77]     c6        101
    x[77]     c7        933
    x[77]     c1        778
    x[77]     c2        66
    x[77]     OBJ       -487
    x[78]     c3        223
    x[78]     c4        411
    x[78]     c5        339
    x[78]     c6        745
    x[78]     c7        141
    x[78]     c1        42
    x[78]     c2        983
    x[78]     OBJ       -353
    x[79]     c3        10
    x[79]     c4        272
    x[79]     c5        209
    x[79]     c6        507
    x[79]     c7        758
    x[79]     c1        714
    x[79]     c2        449
    x[79]     OBJ       -165
    x[80]     c3        870
    x[80]     c4        466
    x[80]     c5        122
    x[80]     c6        261
    x[80]     c7        679
    x[80]     c1        645
    x[80]     c2        654
    x[80]     OBJ       157
    x[81]     c3        835
    x[81]     c4        330
    x[81]     c5        599
    x[81]     c6        814
    x[81]     c7        47
    x[81]     c1        855
    x[81]     c2        458
    x[81]     OBJ       -187
    x[82]     c3        808
    x[82]     c4        665
    x[82]     c5        624
    x[82]     c6        757
    x[82]     c7        98
    x[82]     c1        396
    x[82]     c2        675
    x[82]     OBJ       -403
    x[83]     c3        508
    x[83]     c4        60
    x[83]     c5        861
    x[83]     c6        652
    x[83]     c7        729
    x[83]     c1        768
    x[83]     c2        515
    x[83]     OBJ       38
    x[84]     c3        977
    x[84]     c4        782
    x[84]     c5        866
    x[84]     c6        727
    x[84]     c7        982
    x[84]     c1        392
    x[84]     c2        718
    x[84]     OBJ       -675
    x[85]     c3        309
    x[85]     c4        450
    x[85]     c5        543
    x[85]     c6        658
    x[85]     c7        675
    x[85]     c1        141
    x[85]     c2        486
    x[85]     OBJ       -450
    x[86]     c3        997
    x[86]     c4        769
    x[86]     c5        810
    x[86]     c6        902
    x[86]     c7        749
    x[86]     c1        544
    x[86]     c2        881
    x[86]     OBJ       -455
    x[87]     c3        920
    x[87]     c4        583
    x[87]     c5        769
    x[87]     c6        421
    x[87]     c7        42
    x[87]     c1        847
    x[87]     c2        726
    x[87]     OBJ       -142
    x[88]     c3        892
    x[88]     c4        427
    x[88]     c5        846
    x[88]     c6        731
    x[88]     c7        168
    x[88]     c1        263
    x[88]     c2        386
    x[88]     OBJ       -477
    x[89]     c3        749
    x[89]     c4        799
    x[89]     c5        955
    x[89]     c6        1000
    x[89]     c7        600
    x[89]     c1        325
    x[89]     c2        796
    x[89]     OBJ       -723
    x[90]     c3        355
    x[90]     c4        266
    x[90]     c5        642
    x[90]     c6        303
    x[90]     c7        192
    x[90]     c1        227
    x[90]     c2        229
    x[90]     OBJ       -311
    x[91]     c3        819
    x[91]     c4        319
    x[91]     c5        561
    x[91]     c6        68
    x[91]     c7        337
    x[91]     c1        765
    x[91]     c2        398
    x[91]     OBJ       -324
    x[92]     c3        186
    x[92]     c4        100
    x[92]     c5        922
    x[92]     c6        53
    x[92]     c7        163
    x[92]     c1        128
    x[92]     c2        335
    x[92]     OBJ       -310
    x[93]     c3        46
    x[93]     c4        362
    x[93]     c5        994
    x[93]     c6        501
    x[93]     c7        264
    x[93]     c1        10
    x[93]     c2        624
    x[93]     OBJ       -421
    x[94]     c3        591
    x[94]     c4        213
    x[94]     c5        931
    x[94]     c6        782
    x[94]     c7        793
    x[94]     c1        973
    x[94]     c2        283
    x[94]     OBJ       -239
    x[95]     c3        102
    x[95]     c4        307
    x[95]     c5        908
    x[95]     c6        718
    x[95]     c7        536
    x[95]     c1        162
    x[95]     c2        182
    x[95]     OBJ       -747
    x[96]     c3        859
    x[96]     c4        468
    x[96]     c5        329
    x[96]     c6        979
    x[96]     c7        843
    x[96]     c1        743
    x[96]     c2        589
    x[96]     OBJ       -473
    x[97]     c3        935
    x[97]     c4        352
    x[97]     c5        366
    x[97]     c6        530
    x[97]     c7        715
    x[97]     c1        208
    x[97]     c2        153
    x[97]     OBJ       -624
    x[98]     c3        855
    x[98]     c4        873
    x[98]     c5        513
    x[98]     c6        824
    x[98]     c7        964
    x[98]     c1        223
    x[98]     c2        945
    x[98]     OBJ       -365
    x[99]     c3        334
    x[99]     c4        355
    x[99]     c5        274
    x[99]     c6        692
    x[99]     c7        651
    x[99]     c1        981
    x[99]     c2        272
    x[99]     OBJ       5
    x[100]    c3        968
    x[100]    c4        89
    x[100]    c5        868
    x[100]    c6        926
    x[100]    c7        619
    x[100]    c1        143
    x[100]    c2        849
    x[100]    OBJ       -602
RHS
    rhs       c3        24045
    rhs       c4        24345
    rhs       c5        26096
    rhs       c6        25634
    rhs       c7        24302
    rhs       c1        26324
    rhs       c2        26776
RANGES
BOUNDS
 LO bounds    ss[1]     0
 PL bounds    ss[1]
 LO bounds    ss[2]     0
 PL bounds    ss[2]
 MI bounds    s[1]
 UP bounds    s[1]      0
 MI bounds    s[2]
 UP bounds    s[2]      0
 MI bounds    s[3]
 UP bounds    s[3]      0
 MI bounds    s[4]
 UP bounds    s[4]      0
 MI bounds    s[5]
 UP bounds    s[5]      0
 BV bounds    x[1]
 BV bounds    x[2]
 BV bounds    x[3]
 BV bounds    x[4]
 BV bounds    x[5]
 BV bounds    x[6]
 BV bounds    x[7]
 BV bounds    x[8]
 BV bounds    x[9]
 BV bounds    x[10]
 BV bounds    x[11]
 BV bounds    x[12]
 BV bounds    x[13]
 BV bounds    x[14]
 BV bounds    x[15]
 BV bounds    x[16]
 BV bounds    x[17]
 BV bounds    x[18]
 BV bounds    x[19]
 BV bounds    x[20]
 BV bounds    x[21]
 BV bounds    x[22]
 BV bounds    x[23]
 BV bounds    x[24]
 BV bounds    x[25]
 BV bounds    x[26]
 BV bounds    x[27]
 BV bounds    x[28]
 BV bounds    x[29]
 BV bounds    x[30]
 BV bounds    x[31]
 BV bounds    x[32]
 BV bounds    x[33]
 BV bounds    x[34]
 BV bounds    x[35]
 BV bounds    x[36]
 BV bounds    x[37]
 BV bounds    x[38]
 BV bounds    x[39]
 BV bounds    x[40]
 BV bounds    x[41]
 BV bounds    x[42]
 BV bounds    x[43]
 BV bounds    x[44]
 BV bounds    x[45]
 BV bounds    x[46]
 BV bounds    x[47]
 BV bounds    x[48]
 BV bounds    x[49]
 BV bounds    x[50]
 BV bounds    x[51]
 BV bounds    x[52]
 BV bounds    x[53]
 BV bounds    x[54]
 BV bounds    x[55]
 BV bounds    x[56]
 BV bounds    x[57]
 BV bounds    x[58]
 BV bounds    x[59]
 BV bounds    x[60]
 BV bounds    x[61]
 BV bounds    x[62]
 BV bounds    x[63]
 BV bounds    x[64]
 BV bounds    x[65]
 BV bounds    x[66]
 BV bounds    x[67]
 BV bounds    x[68]
 BV bounds    x[69]
 BV bounds    x[70]
 BV bounds    x[71]
 BV bounds    x[72]
 BV bounds    x[73]
 BV bounds    x[74]
 BV bounds    x[75]
 BV bounds    x[76]
 BV bounds    x[77]
 BV bounds    x[78]
 BV bounds    x[79]
 BV bounds    x[80]
 BV bounds    x[81]
 BV bounds    x[82]
 BV bounds    x[83]
 BV bounds    x[84]
 BV bounds    x[85]
 BV bounds    x[86]
 BV bounds    x[87]
 BV bounds    x[88]
 BV bounds    x[89]
 BV bounds    x[90]
 BV bounds    x[91]
 BV bounds    x[92]
 BV bounds    x[93]
 BV bounds    x[94]
 BV bounds    x[95]
 BV bounds    x[96]
 BV bounds    x[97]
 BV bounds    x[98]
 BV bounds    x[99]
 BV bounds    x[100]
ENDATA
